c colouring generated by benchmark framework
p edge 300 21695
v 1 35
v 2 30
v 3 21
v 4 50
v 5 31
v 6 20
v 7 7
v 8 15
v 9 2
v 10 25
v 11 40
v 12 6
v 13 25
v 14 11
v 15 40
v 16 15
v 17 14
v 18 23
v 19 36
v 20 10
v 21 10
v 22 4
v 23 5
v 24 17
v 25 38
v 26 18
v 27 25
v 28 48
v 29 35
v 30 8
v 31 1
v 32 36
v 33 13
v 34 15
v 35 25
v 36 7
v 37 5
v 38 19
v 39 9
v 40 35
v 41 38
v 42 38
v 43 24
v 44 12
v 45 2
v 46 14
v 47 16
v 48 29
v 49 25
v 50 48
v 51 32
v 52 47
v 53 44
v 54 12
v 55 16
v 56 47
v 57 23
v 58 44
v 59 21
v 60 3
v 61 16
v 62 39
v 63 28
v 64 6
v 65 43
v 66 18
v 67 4
v 68 13
v 69 19
v 70 44
v 71 30
v 72 34
v 73 12
v 74 3
v 75 8
v 76 7
v 77 18
v 78 41
v 79 0
v 80 32
v 81 2
v 82 42
v 83 31
v 84 6
v 85 38
v 86 19
v 87 24
v 88 13
v 89 46
v 90 7
v 91 0
v 92 26
v 93 14
v 94 22
v 95 17
v 96 5
v 97 17
v 98 13
v 99 9
v 100 13
v 101 29
v 102 19
v 103 12
v 104 37
v 105 16
v 106 7
v 107 9
v 108 20
v 109 23
v 110 28
v 111 42
v 112 30
v 113 6
v 114 9
v 115 8
v 116 32
v 117 24
v 118 8
v 119 19
v 120 1
v 121 23
v 122 46
v 123 6
v 124 7
v 125 29
v 126 4
v 127 45
v 128 50
v 129 11
v 130 35
v 131 33
v 132 22
v 133 36
v 134 27
v 135 37
v 136 33
v 137 34
v 138 23
v 139 16
v 140 0
v 141 34
v 142 2
v 143 14
v 144 38
v 145 9
v 146 8
v 147 28
v 148 46
v 149 37
v 150 41
v 151 0
v 152 11
v 153 12
v 154 16
v 155 1
v 156 24
v 157 3
v 158 5
v 159 22
v 160 21
v 161 5
v 162 12
v 163 49
v 164 14
v 165 11
v 166 40
v 167 32
v 168 19
v 169 18
v 170 33
v 171 27
v 172 45
v 173 34
v 174 12
v 175 8
v 176 18
v 177 26
v 178 20
v 179 30
v 180 0
v 181 22
v 182 33
v 183 9
v 184 1
v 185 15
v 186 4
v 187 21
v 188 0
v 189 20
v 190 17
v 191 10
v 192 50
v 193 23
v 194 39
v 195 2
v 196 28
v 197 47
v 198 7
v 199 15
v 200 45
v 201 22
v 202 39
v 203 27
v 204 21
v 205 7
v 206 49
v 207 5
v 208 27
v 209 3
v 210 30
v 211 37
v 212 13
v 213 25
v 214 26
v 215 36
v 216 36
v 217 27
v 218 15
v 219 8
v 220 24
v 221 10
v 222 3
v 223 20
v 224 21
v 225 29
v 226 37
v 227 40
v 228 47
v 229 16
v 230 13
v 231 1
v 232 26
v 233 6
v 234 11
v 235 37
v 236 13
v 237 22
v 238 0
v 239 18
v 240 17
v 241 2
v 242 30
v 243 25
v 244 9
v 245 5
v 246 2
v 247 10
v 248 30
v 249 36
v 250 11
v 251 23
v 252 31
v 253 39
v 254 37
v 255 10
v 256 43
v 257 10
v 258 17
v 259 32
v 260 33
v 261 31
v 262 14
v 263 39
v 264 24
v 265 38
v 266 33
v 267 20
v 268 41
v 269 11
v 270 48
v 271 26
v 272 1
v 273 31
v 274 6
v 275 40
v 276 4
v 277 30
v 278 17
v 279 14
v 280 28
v 281 19
v 282 28
v 283 35
v 284 3
v 285 20
v 286 35
v 287 26
v 288 24
v 289 1
v 290 11
v 291 32
v 292 4
v 293 34
v 294 2
v 295 27
v 296 18
v 297 43
v 298 42
v 299 1
v 300 21
